
(set-logic ALL) 

(declare-datatype MyList ((Nil) (Cons (head Real) (tail MyList)) )) 
(declare-fun l0 () MyList) 
(declare-fun l1 () MyList) 
(declare-fun l2 () MyList) 
(declare-fun l3 () MyList) 
(declare-fun i0 () Real) 
(declare-fun i1 () Real) 
(assert (and (= l1 l1) (= l0 Nil) (= l3 Nil)) )
(assert (= l1 Nil) )
(assert (= l3 Nil) )
(assert (and (= l3 l2) (is-Cons l0)) )
(assert (= l3 l3) )
(assert (not (is-Nil Nil)) )
(assert (not (= l2 Nil)) )
(assert (or (= l1 l0) (is-Cons Nil) (is-Nil Nil)) )
(check-sat)
